(declare-const a Real)
(declare-const b Real)
(declare-const c Real)
(assert (= (* a b c) 1))
(assert (> a 0))
(assert (> b 0))
(assert (> c 0))
(assert (not (<= (+ (* -57486172160 (pow b 4)) (* -43997290496 (pow a 4)) (* -173946175488 (pow a (/ 4 3)) (pow b (/ 8 3))) (* 2557329408 (pow a 2) (pow b 2)) (* 64965214208 b (pow a 3)) (* 207907094528 a (pow b 3))) 0)))
(check-sat)
(get-model)
(exit)